50
2 0 4
2 1 1
4 2 3
4 3 1
5 0 5
5 1 2
6 4 4
7 0 4
7 5 1
8 2 4
8 3 4
8 5 3
8 6 1
9 0 2
9 1 2
9 2 1
9 4 1
9 5 3
9 6 5
9 7 1
9 8 3
10 0 5
10 2 4
10 3 1
10 4 4
10 5 1
10 6 1
10 8 4
10 9 1
11 0 2
11 1 2
11 2 3
11 4 3
11 6 1
11 7 3
12 3 4
12 4 1
12 5 3
13 0 5
13 2 4
13 3 2
13 5 1
13 7 2
13 8 1
13 9 1
13 11 2
13 12 2
14 0 1
14 4 4
14 5 4
14 6 5
14 7 5
14 10 2
14 11 2
14 12 1
14 13 2
15 0 5
15 3 2
15 5 4
15 7 2
15 8 2
15 9 2
15 11 3
15 12 5
16 0 3
16 2 5
16 3 4
16 5 3
16 6 3
16 7 3
16 8 2
16 9 5
16 11 4
16 12 2
16 13 3
16 14 5
17 0 1
17 6 4
17 7 2
17 9 4
17 11 2
17 13 1
17 14 2
17 15 4
17 16 1
18 0 3
18 5 2
18 6 2
18 8 2
18 10 4
18 12 4
18 13 5
18 15 5
18 16 2
18 17 1
19 0 2
19 1 3
19 2 3
19 4 2
19 8 4
19 11 2
19 18 2
20 1 1
20 4 5
20 7 4
20 10 4
20 13 4
20 14 1
20 15 3
20 16 5
20 18 4
21 1 3
21 2 1
21 4 1
21 5 5
21 8 4
21 9 5
21 10 5
21 12 2
21 13 2
21 15 2
21 17 2
21 18 4
22 2 2
22 3 2
22 4 4
22 8 1
22 9 2
22 12 4
22 13 4
22 14 1
22 15 4
22 18 3
22 19 2
22 20 4
23 0 1
23 1 4
23 4 1
23 8 1
23 10 5
23 11 3
23 12 1
23 13 5
23 17 1
23 18 2
23 21 1
23 22 4
24 0 1
24 3 5
24 4 2
24 6 2
24 9 4
24 10 2
24 12 4
24 13 5
24 15 2
24 16 1
24 17 2
24 19 4
24 21 1
25 0 2
25 2 2
25 5 1
25 6 5
25 7 4
25 8 4
25 11 4
25 13 5
25 15 2
25 18 5
25 20 1
25 21 4
25 24 4
26 0 2
26 1 4
26 2 5
26 4 4
26 5 3
26 7 2
26 8 4
26 9 4
26 10 1
26 15 4
26 17 4
26 18 5
26 20 1
26 23 2
26 24 3
27 0 2
27 3 2
27 4 3
27 5 3
27 6 1
27 7 1
27 10 4
27 12 4
27 16 5
27 17 1
27 19 3
27 20 3
27 24 2
28 0 5
28 5 4
28 6 1
28 7 3
28 8 5
28 10 1
28 13 3
28 14 5
28 15 2
28 16 1
28 17 5
28 18 4
28 20 2
28 22 3
28 25 2
28 27 1
29 1 3
29 2 2
29 4 5
29 6 2
29 7 2
29 8 5
29 9 4
29 10 4
29 13 4
29 14 2
29 15 1
29 17 1
29 18 2
29 23 1
29 25 5
30 0 1
30 1 3
30 4 4
30 7 3
30 8 4
30 9 5
30 10 2
30 12 4
30 13 5
30 14 2
30 16 1
30 17 3
30 21 5
30 22 1
30 24 1
30 25 3
30 26 3
30 27 2
30 28 2
30 29 4
31 0 5
31 1 2
31 2 1
31 4 3
31 5 3
31 7 3
31 8 3
31 10 3
31 12 2
31 13 1
31 17 1
31 19 4
31 28 2
31 30 1
32 0 2
32 1 5
32 4 4
32 5 2
32 9 2
32 15 1
32 19 1
32 20 4
32 21 2
32 22 1
32 23 2
32 28 3
33 3 4
33 6 1
33 7 2
33 14 4
33 17 4
33 19 2
33 20 3
33 21 3
33 22 1
33 24 5
33 27 5
33 28 3
33 30 1
33 31 5
34 2 5
34 3 1
34 7 1
34 11 1
34 12 2
34 14 5
34 16 5
34 18 1
34 21 4
34 23 4
34 24 1
34 30 4
34 31 1
34 33 4
35 0 5
35 1 5
35 2 2
35 3 2
35 7 1
35 9 2
35 15 2
35 16 1
35 17 2
35 23 3
35 32 2
35 33 5
36 0 4
36 1 3
36 3 1
36 4 1
36 6 3
36 9 1
36 12 5
36 13 1
36 14 2
36 15 4
36 19 4
36 20 5
36 21 5
36 22 3
36 23 5
36 25 3
36 26 2
36 27 5
36 28 1
36 32 2
36 35 5
37 0 2
37 1 1
37 3 2
37 4 4
37 6 2
37 7 1
37 8 2
37 10 4
37 12 3
37 13 3
37 14 3
37 15 1
37 16 2
37 17 4
37 18 5
37 19 4
37 20 4
37 24 3
37 25 5
37 26 2
37 33 5
37 34 4
37 35 2
37 36 5
38 0 1
38 1 3
38 3 2
38 4 2
38 8 3
38 9 4
38 10 1
38 12 4
38 14 2
38 15 4
38 17 4
38 21 1
38 23 1
38 25 3
38 26 3
38 27 5
38 29 1
38 30 5
38 31 3
38 33 3
38 35 4
39 0 1
39 4 5
39 5 5
39 7 1
39 10 3
39 11 2
39 13 1
39 17 2
39 22 1
39 23 3
39 26 3
39 27 2
39 29 2
39 32 5
40 0 4
40 2 5
40 4 4
40 5 1
40 6 1
40 7 1
40 8 5
40 11 4
40 13 1
40 15 5
40 16 1
40 17 5
40 19 3
40 22 4
40 24 3
40 26 4
40 27 5
40 30 2
40 31 3
40 36 3
40 39 2
41 0 1
41 1 1
41 2 1
41 3 3
41 4 1
41 5 3
41 6 2
41 7 3
41 11 5
41 12 1
41 13 2
41 16 3
41 17 5
41 19 2
41 20 3
41 21 1
41 23 1
41 28 4
41 29 4
41 34 4
41 36 5
41 37 1
41 38 4
41 40 1
42 1 1
42 2 4
42 3 1
42 6 3
42 7 2
42 8 5
42 9 2
42 10 4
42 12 1
42 14 3
42 15 4
42 17 2
42 18 4
42 20 3
42 21 1
42 22 5
42 23 5
42 25 3
42 26 1
42 30 3
42 32 2
42 33 4
42 34 3
42 35 1
42 40 4
42 41 2
43 0 2
43 1 2
43 4 4
43 9 5
43 11 4
43 12 5
43 13 4
43 15 2
43 18 3
43 25 4
43 29 1
43 31 1
43 32 2
43 33 1
43 36 5
43 38 5
43 40 1
43 42 2
44 1 3
44 2 1
44 5 4
44 8 2
44 10 3
44 11 2
44 13 5
44 14 2
44 16 3
44 18 4
44 19 1
44 20 5
44 22 4
44 23 5
44 26 3
44 27 5
44 28 4
44 30 2
44 31 2
44 34 4
44 37 1
44 38 3
44 39 2
44 40 3
44 41 4
44 43 3
45 1 1
45 2 2
45 6 1
45 7 4
45 8 1
45 9 3
45 11 3
45 14 3
45 15 3
45 16 2
45 19 3
45 20 3
45 21 2
45 22 1
45 24 1
45 25 1
45 29 1
45 32 1
45 36 2
45 39 3
45 41 2
46 0 3
46 2 2
46 5 3
46 7 4
46 10 5
46 13 3
46 15 1
46 17 1
46 19 4
46 20 3
46 21 3
46 22 3
46 26 2
46 31 4
46 36 4
46 39 3
46 43 3
47 0 5
47 1 1
47 3 2
47 4 3
47 9 5
47 10 4
47 16 5
47 17 5
47 21 2
47 22 1
47 23 2
47 24 3
47 25 4
47 29 2
47 31 5
47 32 1
47 33 1
47 35 4
47 37 4
47 39 1
47 41 3
47 42 4
47 44 2
47 45 3
47 46 1
48 1 1
48 2 2
48 7 3
48 8 5
48 10 4
48 12 1
48 17 2
48 21 1
48 25 2
48 27 1
48 29 5
48 30 3
48 32 2
48 33 3
48 34 1
48 39 2
48 40 5
48 41 2
48 44 4
48 45 3
49 1 5
49 2 4
49 4 2
49 5 2
49 6 2
49 7 1
49 10 2
49 11 2
49 12 4
49 13 3
49 15 2
49 16 3
49 17 3
49 18 2
49 19 3
49 20 1
49 22 5
49 25 1
49 26 2
49 28 2
49 30 2
49 31 3
49 36 1
49 40 5
49 41 2
49 43 2
49 44 5
49 45 3
49 47 3
